c numero: 20
c nombre: n-30-d-0.3
c densidad: 0.3
p edges 30 138
e 1 4
e 1 11
e 1 12
e 1 15
e 1 20
e 1 27
e 1 28
e 2 4
e 2 5
e 2 13
e 2 14
e 2 17
e 2 19
e 2 22
e 2 24
e 3 11
e 3 13
e 3 19
e 3 22
e 3 30
e 4 9
e 4 11
e 4 13
e 4 15
e 4 17
e 4 19
e 4 22
e 4 23
e 4 30
e 5 10
e 5 12
e 5 14
e 5 16
e 5 17
e 5 19
e 5 25
e 5 28
e 6 7
e 6 10
e 6 20
e 6 22
e 6 23
e 6 24
e 6 28
e 6 29
e 7 8
e 7 9
e 7 19
e 7 23
e 7 25
e 7 26
e 8 10
e 8 11
e 8 12
e 8 14
e 8 15
e 8 19
e 8 20
e 8 22
e 8 29
e 9 10
e 9 11
e 9 12
e 9 14
e 9 17
e 9 18
e 9 19
e 9 21
e 9 22
e 9 23
e 9 26
e 9 28
e 10 11
e 10 15
e 10 19
e 10 20
e 10 22
e 10 23
e 10 24
e 10 30
e 11 12
e 11 19
e 11 22
e 11 23
e 11 24
e 11 29
e 12 20
e 12 22
e 12 27
e 12 29
e 12 30
e 13 14
e 13 15
e 13 16
e 13 17
e 13 19
e 13 21
e 13 25
e 13 27
e 13 29
e 14 16
e 14 17
e 14 18
e 15 16
e 15 18
e 15 19
e 15 22
e 15 25
e 15 26
e 16 21
e 16 22
e 16 26
e 16 28
e 17 24
e 18 21
e 18 23
e 18 25
e 18 26
e 19 20
e 19 22
e 19 24
e 19 30
e 20 23
e 21 24
e 21 26
e 21 27
e 21 28
e 22 26
e 22 27
e 23 24
e 23 25
e 23 26
e 23 28
e 23 29
e 24 26
e 24 27
e 25 29
e 26 28
